Maximize
  4.796766005661315e-04 Z_85_0_0 + 0.0024351117447499 Z_85_0_1
   + 0.8702281107965212 Z_85_0_2 + 9.0580786057397505e-04 Z_85_0_3
   + 0.0259512929975888 Z_85_0_4
Subject To
 constraint1_850: Z_85_0_0 + Z_85_0_1 + Z_85_0_2 + Z_85_0_3 + Z_85_0_4
   <= 1
 constraint2_850: Z_85_0_0 <= 1
 constraint2_851: Z_85_0_1 <= 1
 constraint2_852: Z_85_0_2 <= 1
 constraint2_853: Z_85_0_3 <= 1
Bounds
Binaries
 Z_85_0_0 Z_85_0_1 Z_85_0_2 Z_85_0_3 Z_85_0_4
End
